NAME : covtype.pruned_global_16.0.tour
COMMENT : Length = 0
TYPE : TOUR
DIMENSION : 54
TOUR_SECTION
15
9
40
43
45
47
46
44
42
1
41
39
10
22
21
6
50
52
53
54
3
18
17
7
31
30
14
25
27
29
4
48
49
11
51
13
33
32
12
34
36
38
37
35
5
28
26
24
23
2
19
20
8
16
-1
EOF
